
%FILE DATA:	Soccer Computational Problem for MiniZinc Models	%
%AUTHOR:	Jack Wall	%
%CONTACT:  	116397063@umail.ucc.ie			%
%LAST UPDATE:	02/24/2020, 18:51:12						%
%DESCRIPTION: 	45 games played with 27 games left				%


n=9; %number of teams

%Games to play
games=[|6,4|7,9|7,6|1,6|8,2|1,8|4,9|4,1|5,1|6,5|7,8|2,8|1,9|9,4|1,3|4,5|5,7|2,3|2,5|3,9|6,3|8,3|8,7|8,5|9,7|8,9|5,6|];

%Initial points
iPoints=[21,19,17,10,13,9,13,16,6];

%POSITION CONSTRAINTS
% [|teamID, operator, position|...]
% operators index:
%  1 for =  operator
%  2 for >  operator
%  3 for >= operator
%  4 for <  operator
%  5 for <= operator
positionConstraints=[|1,4,2|8,4,3|3,4,4|6,5,4|2,5,5|];